1111100 AB
360 386 412 438 464 490 505 520 535 550 565 595 625 655 685 715 750 780 810 840 855 870 885 900 915 930 945 960 975 1001 1027 1053 1068 1095 1125 1155 1170 1185 1200 1230 1260 1290
1111100 BA
371 397 423 449 475 501 516 531 546 561 576 606 636 666 696 726 761 791 821 851 866 881 896 911 926 941 956 971 986 1012 1038 1064 1079 1106 1136 1166 1181 1196 1211 1241 1271 1301
0000011 AB
489 513 540 570 600 630 660 750 780 810 840 870 900 930 1020 1050 1080 1110 1140 1170 1200
0000011 BA
499 523 550 580 610 640 670 760 790 820 850 880 910 940 1030 1060 1090 1120 1150 1180 1210
